% Logging successfully configured
%%%mzn-stat: initTime=0.002954379
%%%mzn-stat: objective=909
%%%mzn-stat: nodes=153
%%%mzn-stat: restarts=0
%%%mzn-stat: peakDepth=130
%%%mzn-stat: solveTime=0.002079523
%%%mzn-stat: variables=288
%%%mzn-stat: propagators=189
%%%mzn-stat: failures=14
%%%mzn-stat: propagations=1031
%%%mzn-stat: nogoods=14
%%%mzn-stat: numAtomicConstraintsPropagated=0
%%%mzn-stat: allDifferentNumber1PropagationsTotal=91
%%%mzn-stat: allDifferentNumber1PropagationsThatFoundConflict=0
%%%mzn-stat: allDifferentNumber1PropagationsThatPruned=53
%%%mzn-stat: allDifferentNumber1TotalValuesPruned=175
%%%mzn-stat: allDifferentNumber1TotalHallSetSizeConflict=0
%%%mzn-stat: allDifferentNumber1NumberOfConflicts=0
%%%mzn-stat: allDifferentNumber1MaxHallSetSizeConflict=0
%%%mzn-stat: allDifferentNumber1TotalPruningHallSetSize=472
%%%mzn-stat: allDifferentNumber1NumberOfPruningExplanations=175
%%%mzn-stat: allDifferentNumber1MaxPruningHallSetSize=13
%%%mzn-stat: allDifferentNumber1TotalFixedEdgesAtConflict=0
%%%mzn-stat: allDifferentNumber1TotalVarsInvolvedInPruning=155
%%%mzn-stat: allDifferentNumber1MaxValuesPrunedFromSingleVar=4
%%%mzn-stat: allDifferentNumber1TotalSccSizeAtPruning=247
%%%mzn-stat: allDifferentNumber1NumberOfSccPruningCalls=53
%%%mzn-stat: circuitNumber2PropagationsThatFoundConflict=14
%%%mzn-stat: circuitNumber2TotalFixedEdgesAtConflict=223
%%%mzn-stat: circuitNumber2NumberOfConflicts=14
%%%mzn-stat: circuitNumber2PropagationsThatPruned=6
%%%mzn-stat: circuitNumber2PropagationsTotal=54
%%%mzn-stat: AverageConflictSize=9.142857142857142
%%%mzn-stat: NumUnitNogoodsLearned=0
%%%mzn-stat: AverageLearnedNogoodLength=9
%%%mzn-stat: AverageBacktrackAmount=0
%%%mzn-stat: AverageLbd=6.142857142857143
%%%mzn-stat: 2AutonomousSearchNumBackupCalled=120
%%%mzn-stat: 2AutonomousSearchNumPredicatesRemoved=0
%%%mzn-stat: 2AutonomousSearchNumCalls=121
%%%mzn-stat: 2AutonomousSearchNumPredicatesAdded=274
%%%mzn-stat: 2AutonomousSearchAverageSizeOfHeap=2.2644628099173554
%%%mzn-stat: 2AutonomousSearchNumAssignedPredicatesEncountered=274
%%%mzn-stat-end
maxleg = 909;
succ = array1d(1..20,[3, 12, 2, 5, 8, 7, 20, 9, 14, 4, 15, 13, 16, 18, 10, 17, 11, 19, 6, 1]);
% time elapsed: 1.78 s
----------
%%%mzn-stat: initTime=0.002954379
%%%mzn-stat: objective=567
%%%mzn-stat: nodes=295
%%%mzn-stat: restarts=0
%%%mzn-stat: peakDepth=130
%%%mzn-stat: solveTime=0.005434402
%%%mzn-stat: variables=288
%%%mzn-stat: propagators=189
%%%mzn-stat: failures=35
%%%mzn-stat: propagations=1905
%%%mzn-stat: nogoods=35
%%%mzn-stat: numAtomicConstraintsPropagated=0
%%%mzn-stat: allDifferentNumber1PropagationsTotal=193
%%%mzn-stat: allDifferentNumber1PropagationsThatFoundConflict=0
%%%mzn-stat: allDifferentNumber1PropagationsThatPruned=110
%%%mzn-stat: allDifferentNumber1TotalValuesPruned=441
%%%mzn-stat: allDifferentNumber1TotalHallSetSizeConflict=0
%%%mzn-stat: allDifferentNumber1NumberOfConflicts=0
%%%mzn-stat: allDifferentNumber1MaxHallSetSizeConflict=0
%%%mzn-stat: allDifferentNumber1TotalPruningHallSetSize=1347
%%%mzn-stat: allDifferentNumber1NumberOfPruningExplanations=441
%%%mzn-stat: allDifferentNumber1MaxPruningHallSetSize=13
%%%mzn-stat: allDifferentNumber1TotalFixedEdgesAtConflict=0
%%%mzn-stat: allDifferentNumber1TotalVarsInvolvedInPruning=390
%%%mzn-stat: allDifferentNumber1MaxValuesPrunedFromSingleVar=4
%%%mzn-stat: allDifferentNumber1TotalSccSizeAtPruning=621
%%%mzn-stat: allDifferentNumber1NumberOfSccPruningCalls=110
%%%mzn-stat: circuitNumber2PropagationsThatFoundConflict=35
%%%mzn-stat: circuitNumber2TotalFixedEdgesAtConflict=514
%%%mzn-stat: circuitNumber2NumberOfConflicts=35
%%%mzn-stat: circuitNumber2PropagationsThatPruned=10
%%%mzn-stat: circuitNumber2PropagationsTotal=111
%%%mzn-stat: AverageConflictSize=8.228571428571428
%%%mzn-stat: NumUnitNogoodsLearned=0
%%%mzn-stat: AverageLearnedNogoodLength=10.114285714285714
%%%mzn-stat: AverageBacktrackAmount=0
%%%mzn-stat: AverageLbd=6.371428571428571
%%%mzn-stat: 2AutonomousSearchNumBackupCalled=226
%%%mzn-stat: 2AutonomousSearchNumPredicatesRemoved=0
%%%mzn-stat: 2AutonomousSearchNumCalls=228
%%%mzn-stat: 2AutonomousSearchNumPredicatesAdded=535
%%%mzn-stat: 2AutonomousSearchAverageSizeOfHeap=2.81140350877193
%%%mzn-stat: 2AutonomousSearchNumAssignedPredicatesEncountered=641
%%%mzn-stat-end
maxleg = 567;
succ = array1d(1..20,[3, 12, 2, 5, 8, 11, 20, 9, 14, 7, 13, 10, 16, 18, 1, 17, 15, 19, 6, 4]);
% time elapsed: 1.80 s
----------
%%%mzn-stat: initTime=0.002954379
%%%mzn-stat: objective=528
%%%mzn-stat: nodes=436
%%%mzn-stat: restarts=0
%%%mzn-stat: peakDepth=130
%%%mzn-stat: solveTime=0.008302131
%%%mzn-stat: variables=288
%%%mzn-stat: propagators=189
%%%mzn-stat: failures=54
%%%mzn-stat: propagations=2755
%%%mzn-stat: nogoods=54
%%%mzn-stat: numAtomicConstraintsPropagated=0
%%%mzn-stat: allDifferentNumber1PropagationsTotal=284
%%%mzn-stat: allDifferentNumber1PropagationsThatFoundConflict=0
%%%mzn-stat: allDifferentNumber1PropagationsThatPruned=163
%%%mzn-stat: allDifferentNumber1TotalValuesPruned=696
%%%mzn-stat: allDifferentNumber1TotalHallSetSizeConflict=0
%%%mzn-stat: allDifferentNumber1NumberOfConflicts=0
%%%mzn-stat: allDifferentNumber1MaxHallSetSizeConflict=0
%%%mzn-stat: allDifferentNumber1TotalPruningHallSetSize=2294
%%%mzn-stat: allDifferentNumber1NumberOfPruningExplanations=696
%%%mzn-stat: allDifferentNumber1MaxPruningHallSetSize=13
%%%mzn-stat: allDifferentNumber1TotalFixedEdgesAtConflict=0
%%%mzn-stat: allDifferentNumber1TotalVarsInvolvedInPruning=599
%%%mzn-stat: allDifferentNumber1MaxValuesPrunedFromSingleVar=4
%%%mzn-stat: allDifferentNumber1TotalSccSizeAtPruning=996
%%%mzn-stat: allDifferentNumber1NumberOfSccPruningCalls=163
%%%mzn-stat: circuitNumber2PropagationsThatFoundConflict=54
%%%mzn-stat: circuitNumber2TotalFixedEdgesAtConflict=790
%%%mzn-stat: circuitNumber2NumberOfConflicts=54
%%%mzn-stat: circuitNumber2PropagationsThatPruned=14
%%%mzn-stat: circuitNumber2PropagationsTotal=164
%%%mzn-stat: AverageConflictSize=8.185185185185185
%%%mzn-stat: NumUnitNogoodsLearned=0
%%%mzn-stat: AverageLearnedNogoodLength=11.092592592592593
%%%mzn-stat: AverageBacktrackAmount=0
%%%mzn-stat: AverageLbd=6.518518518518518
%%%mzn-stat: 2AutonomousSearchNumBackupCalled=338
%%%mzn-stat: 2AutonomousSearchNumPredicatesRemoved=0
%%%mzn-stat: 2AutonomousSearchNumCalls=341
%%%mzn-stat: 2AutonomousSearchNumPredicatesAdded=837
%%%mzn-stat: 2AutonomousSearchAverageSizeOfHeap=3.0117302052785924
%%%mzn-stat: 2AutonomousSearchNumAssignedPredicatesEncountered=1027
%%%mzn-stat-end
maxleg = 528;
succ = array1d(1..20,[3, 12, 2, 5, 8, 13, 20, 9, 14, 15, 7, 10, 1, 18, 16, 17, 11, 19, 6, 4]);
% time elapsed: 1.80 s
----------
%%%mzn-stat: initTime=0.002954379
%%%mzn-stat: objective=449
%%%mzn-stat: nodes=555
%%%mzn-stat: restarts=0
%%%mzn-stat: peakDepth=130
%%%mzn-stat: solveTime=0.009052812
%%%mzn-stat: variables=288
%%%mzn-stat: propagators=189
%%%mzn-stat: failures=56
%%%mzn-stat: propagations=3175
%%%mzn-stat: nogoods=56
%%%mzn-stat: numAtomicConstraintsPropagated=0
%%%mzn-stat: allDifferentNumber1PropagationsTotal=318
%%%mzn-stat: allDifferentNumber1PropagationsThatFoundConflict=0
%%%mzn-stat: allDifferentNumber1PropagationsThatPruned=180
%%%mzn-stat: allDifferentNumber1TotalValuesPruned=785
%%%mzn-stat: allDifferentNumber1TotalHallSetSizeConflict=0
%%%mzn-stat: allDifferentNumber1NumberOfConflicts=0
%%%mzn-stat: allDifferentNumber1MaxHallSetSizeConflict=0
%%%mzn-stat: allDifferentNumber1TotalPruningHallSetSize=2540
%%%mzn-stat: allDifferentNumber1NumberOfPruningExplanations=785
%%%mzn-stat: allDifferentNumber1MaxPruningHallSetSize=16
%%%mzn-stat: allDifferentNumber1TotalFixedEdgesAtConflict=0
%%%mzn-stat: allDifferentNumber1TotalVarsInvolvedInPruning=671
%%%mzn-stat: allDifferentNumber1MaxValuesPrunedFromSingleVar=4
%%%mzn-stat: allDifferentNumber1TotalSccSizeAtPruning=1108
%%%mzn-stat: allDifferentNumber1NumberOfSccPruningCalls=180
%%%mzn-stat: circuitNumber2PropagationsThatFoundConflict=56
%%%mzn-stat: circuitNumber2TotalFixedEdgesAtConflict=817
%%%mzn-stat: circuitNumber2NumberOfConflicts=56
%%%mzn-stat: circuitNumber2PropagationsThatPruned=16
%%%mzn-stat: circuitNumber2PropagationsTotal=182
%%%mzn-stat: AverageConflictSize=8.035714285714286
%%%mzn-stat: NumUnitNogoodsLearned=0
%%%mzn-stat: AverageLearnedNogoodLength=10.946428571428571
%%%mzn-stat: AverageBacktrackAmount=0
%%%mzn-stat: AverageLbd=6.428571428571429
%%%mzn-stat: 2AutonomousSearchNumBackupCalled=442
%%%mzn-stat: 2AutonomousSearchNumPredicatesRemoved=0
%%%mzn-stat: 2AutonomousSearchNumCalls=446
%%%mzn-stat: 2AutonomousSearchNumPredicatesAdded=924
%%%mzn-stat: 2AutonomousSearchAverageSizeOfHeap=3.1681614349775784
%%%mzn-stat: 2AutonomousSearchNumAssignedPredicatesEncountered=1413
%%%mzn-stat-end
maxleg = 449;
succ = array1d(1..20,[3, 12, 7, 5, 8, 11, 20, 9, 14, 1, 13, 10, 15, 18, 17, 2, 16, 19, 6, 4]);
% time elapsed: 1.80 s
----------
%%%mzn-stat: initTime=0.002954379
%%%mzn-stat: objective=403
%%%mzn-stat: nodes=658
%%%mzn-stat: restarts=0
%%%mzn-stat: peakDepth=130
%%%mzn-stat: solveTime=0.009573993
%%%mzn-stat: variables=288
%%%mzn-stat: propagators=189
%%%mzn-stat: failures=56
%%%mzn-stat: propagations=3538
%%%mzn-stat: nogoods=56
%%%mzn-stat: numAtomicConstraintsPropagated=0
%%%mzn-stat: allDifferentNumber1PropagationsTotal=343
%%%mzn-stat: allDifferentNumber1PropagationsThatFoundConflict=0
%%%mzn-stat: allDifferentNumber1PropagationsThatPruned=193
%%%mzn-stat: allDifferentNumber1TotalValuesPruned=840
%%%mzn-stat: allDifferentNumber1TotalHallSetSizeConflict=0
%%%mzn-stat: allDifferentNumber1NumberOfConflicts=0
%%%mzn-stat: allDifferentNumber1MaxHallSetSizeConflict=0
%%%mzn-stat: allDifferentNumber1TotalPruningHallSetSize=2710
%%%mzn-stat: allDifferentNumber1NumberOfPruningExplanations=840
%%%mzn-stat: allDifferentNumber1MaxPruningHallSetSize=16
%%%mzn-stat: allDifferentNumber1TotalFixedEdgesAtConflict=0
%%%mzn-stat: allDifferentNumber1TotalVarsInvolvedInPruning=717
%%%mzn-stat: allDifferentNumber1MaxValuesPrunedFromSingleVar=4
%%%mzn-stat: allDifferentNumber1TotalSccSizeAtPruning=1183
%%%mzn-stat: allDifferentNumber1NumberOfSccPruningCalls=193
%%%mzn-stat: circuitNumber2PropagationsThatFoundConflict=56
%%%mzn-stat: circuitNumber2TotalFixedEdgesAtConflict=817
%%%mzn-stat: circuitNumber2NumberOfConflicts=56
%%%mzn-stat: circuitNumber2PropagationsThatPruned=18
%%%mzn-stat: circuitNumber2PropagationsTotal=196
%%%mzn-stat: AverageConflictSize=8.035714285714286
%%%mzn-stat: NumUnitNogoodsLearned=0
%%%mzn-stat: AverageLearnedNogoodLength=10.946428571428571
%%%mzn-stat: AverageBacktrackAmount=0
%%%mzn-stat: AverageLbd=6.428571428571429
%%%mzn-stat: 2AutonomousSearchNumBackupCalled=534
%%%mzn-stat: 2AutonomousSearchNumPredicatesRemoved=0
%%%mzn-stat: 2AutonomousSearchNumCalls=539
%%%mzn-stat: 2AutonomousSearchNumPredicatesAdded=924
%%%mzn-stat: 2AutonomousSearchAverageSizeOfHeap=3.3376623376623376
%%%mzn-stat: 2AutonomousSearchNumAssignedPredicatesEncountered=1799
%%%mzn-stat-end
maxleg = 403;
succ = array1d(1..20,[3, 12, 7, 5, 8, 11, 20, 14, 18, 1, 13, 10, 15, 9, 17, 2, 16, 19, 6, 4]);
% time elapsed: 1.80 s
----------
%%%mzn-stat: initTime=0.002954379
%%%mzn-stat: objective=402
%%%mzn-stat: nodes=808
%%%mzn-stat: restarts=0
%%%mzn-stat: peakDepth=130
%%%mzn-stat: solveTime=0.017483875
%%%mzn-stat: variables=288
%%%mzn-stat: propagators=189
%%%mzn-stat: failures=104
%%%mzn-stat: propagations=5662
%%%mzn-stat: nogoods=104
%%%mzn-stat: numAtomicConstraintsPropagated=0
%%%mzn-stat: allDifferentNumber1PropagationsTotal=555
%%%mzn-stat: allDifferentNumber1PropagationsThatFoundConflict=0
%%%mzn-stat: allDifferentNumber1PropagationsThatPruned=329
%%%mzn-stat: allDifferentNumber1TotalValuesPruned=1454
%%%mzn-stat: allDifferentNumber1TotalHallSetSizeConflict=0
%%%mzn-stat: allDifferentNumber1NumberOfConflicts=0
%%%mzn-stat: allDifferentNumber1MaxHallSetSizeConflict=0
%%%mzn-stat: allDifferentNumber1TotalPruningHallSetSize=5174
%%%mzn-stat: allDifferentNumber1NumberOfPruningExplanations=1454
%%%mzn-stat: allDifferentNumber1MaxPruningHallSetSize=17
%%%mzn-stat: allDifferentNumber1TotalFixedEdgesAtConflict=0
%%%mzn-stat: allDifferentNumber1TotalVarsInvolvedInPruning=1182
%%%mzn-stat: allDifferentNumber1MaxValuesPrunedFromSingleVar=5
%%%mzn-stat: allDifferentNumber1TotalSccSizeAtPruning=2242
%%%mzn-stat: allDifferentNumber1NumberOfSccPruningCalls=329
%%%mzn-stat: circuitNumber2PropagationsThatFoundConflict=104
%%%mzn-stat: circuitNumber2TotalFixedEdgesAtConflict=1520
%%%mzn-stat: circuitNumber2NumberOfConflicts=104
%%%mzn-stat: circuitNumber2PropagationsThatPruned=53
%%%mzn-stat: circuitNumber2PropagationsTotal=334
%%%mzn-stat: AverageConflictSize=8.673076923076923
%%%mzn-stat: NumUnitNogoodsLearned=0
%%%mzn-stat: AverageLearnedNogoodLength=13.038461538461538
%%%mzn-stat: AverageBacktrackAmount=0
%%%mzn-stat: AverageLbd=5.326923076923077
%%%mzn-stat: 2AutonomousSearchNumBackupCalled=624
%%%mzn-stat: 2AutonomousSearchNumPredicatesRemoved=0
%%%mzn-stat: 2AutonomousSearchNumCalls=630
%%%mzn-stat: 2AutonomousSearchNumPredicatesAdded=1421
%%%mzn-stat: 2AutonomousSearchAverageSizeOfHeap=3.815873015873016
%%%mzn-stat: 2AutonomousSearchNumAssignedPredicatesEncountered=2404
%%%mzn-stat-end
maxleg = 402;
succ = array1d(1..20,[3, 13, 10, 20, 4, 19, 1, 5, 14, 12, 6, 2, 15, 8, 16, 17, 11, 9, 18, 7]);
% time elapsed: 1.80 s
----------
==========
% time elapsed: 1.80 s
%%%mzn-stat: initTime=0.002954379
%%%mzn-stat: objective=402
%%%mzn-stat: nodes=808
%%%mzn-stat: restarts=0
%%%mzn-stat: peakDepth=130
%%%mzn-stat: solveTime=0.017600466
%%%mzn-stat: variables=288
%%%mzn-stat: propagators=189
%%%mzn-stat: failures=105
%%%mzn-stat: propagations=5729
%%%mzn-stat: nogoods=105
%%%mzn-stat: numAtomicConstraintsPropagated=0
%%%mzn-stat: allDifferentNumber1PropagationsTotal=556
%%%mzn-stat: allDifferentNumber1PropagationsThatFoundConflict=0
%%%mzn-stat: allDifferentNumber1PropagationsThatPruned=330
%%%mzn-stat: allDifferentNumber1TotalValuesPruned=1460
%%%mzn-stat: allDifferentNumber1TotalHallSetSizeConflict=0
%%%mzn-stat: allDifferentNumber1NumberOfConflicts=0
%%%mzn-stat: allDifferentNumber1MaxHallSetSizeConflict=0
%%%mzn-stat: allDifferentNumber1TotalPruningHallSetSize=5234
%%%mzn-stat: allDifferentNumber1NumberOfPruningExplanations=1460
%%%mzn-stat: allDifferentNumber1MaxPruningHallSetSize=19
%%%mzn-stat: allDifferentNumber1TotalFixedEdgesAtConflict=0
%%%mzn-stat: allDifferentNumber1TotalVarsInvolvedInPruning=1186
%%%mzn-stat: allDifferentNumber1MaxValuesPrunedFromSingleVar=5
%%%mzn-stat: allDifferentNumber1TotalSccSizeAtPruning=2279
%%%mzn-stat: allDifferentNumber1NumberOfSccPruningCalls=330
%%%mzn-stat: circuitNumber2PropagationsThatFoundConflict=105
%%%mzn-stat: circuitNumber2TotalFixedEdgesAtConflict=1522
%%%mzn-stat: circuitNumber2NumberOfConflicts=105
%%%mzn-stat: circuitNumber2PropagationsThatPruned=53
%%%mzn-stat: circuitNumber2PropagationsTotal=335
%%%mzn-stat: AverageConflictSize=8.60952380952381
%%%mzn-stat: NumUnitNogoodsLearned=1
%%%mzn-stat: AverageLearnedNogoodLength=12.923809523809524
%%%mzn-stat: AverageBacktrackAmount=0
%%%mzn-stat: AverageLbd=5.285714285714286
%%%mzn-stat: 2AutonomousSearchNumBackupCalled=624
%%%mzn-stat: 2AutonomousSearchNumPredicatesRemoved=0
%%%mzn-stat: 2AutonomousSearchNumCalls=630
%%%mzn-stat: 2AutonomousSearchNumPredicatesAdded=1512
%%%mzn-stat: 2AutonomousSearchAverageSizeOfHeap=3.815873015873016
%%%mzn-stat: 2AutonomousSearchNumAssignedPredicatesEncountered=2404
%%%mzn-stat-end
